20
5
452376
0
0
36 230 26 80 24
1
0
23 40 6 5 39
2
0
33 10 46 26 86
3
0
5 24 32 13 57
4
0
31 5 18 70 72
5
0
13 14 33 13 14
6
0
38 55 74 101 29
7
0
2 95 147 8 20
8
0
167 160 68 67 6
9
0
74 85 277 147 19
10
0
12 65 110 179 71
11
0
38 194 45 216 24
12
0
97 90 251 8 48
13
0
65 156 104 9 57
14
0
18 35 39 20 155
15
0
66 0 71 270 94
16
0
71 16 1 16 10
17
0
104 213 40 3 34
18
0
14 176 72 77 11
19
0
224 49 44 28 42
